c --- [ banner ] -------------------------------------------------------------
c 
c CaDiCaL Radically Simplified CDCL SAT Solver
c Copyright (c) 2016-2021 A. Biere, M. Fleury, N. Froleyks
c 
c Version 1.5.2 ca9bff05c11bde5eae4912f9932871d1527e61d8
c g++ (GCC) 9.3.0 -Wall -Wextra -O3 -DNDEBUG
c Sun May 1 02:23:23 EDT 2022 Linux gra-login1 3.10.0-1160.59.1.el7.x86_64 x86_64
c 
c --- [ limit ] --------------------------------------------------------------
c 
c setting conflict limit to 200000 conflicts (due to '200000')
c 
c --- [ parsing input ] ------------------------------------------------------
c 
c reading DIMACS file from '12.cubes1172.adj'
c opening file to read '12.cubes1172.adj'
c found 'p cnf 5320 924210' header
c parsed 924210 clauses in 8.73 seconds process time
c closing file '12.cubes1172.adj'
c after reading 686668115 bytes 654.9 MB
c 
c --- [ options ] ------------------------------------------------------------
c 
c all options are set to their default value
c 
c --- [ solving ] ------------------------------------------------------------
c 
c time measured in process time since initialization
c 
c  seconds   reductions  redundant  irredundant
c          MB    restarts       trail      variables
c           level   conflicts       glue        remaining
c 
c *  8.73 688  0 0   0    0    0  0% 0 923580 4158 78%
c {  9.94 731  0 0   0    0    0  0% 0 923580 4158 78%
c i 10.16 733 148 0   0    1    0 41% 0 923580 4149 78%
c i 10.90 751 91 0   1   32   22 51% 16 923580 4129 78%
c i 11.11 754 77 0   1   41   28 49% 14 923580 4081 77%
c i 12.02 759 35 0   2  137   88 44% 9 923580 4064 76%
c i 12.03 759 35 0   3  140   90 44% 10 923580 4063 76%
c i 12.05 760 35 0   3  147   95 44% 10 923580 4062 76%
c i 12.06 760 35 0   3  149   96 44% 9 923580 4061 76%
c i 12.07 760 35 0   3  150   96 44% 9 923580 4060 76%
c i 12.07 760 35 0   3  151   96 45% 9 923580 4059 76%
c i 12.07 760 34 0   3  154   98 45% 9 923580 4058 76%
c i 12.07 760 34 0   3  156   99 45% 9 923580 4057 76%
c i 12.07 760 34 0   3  157   99 45% 9 923580 4056 76%
c i 12.46 764 34 0   6  175  116 46% 10 923580 4020 76%
c i 12.59 766 37 0   7  181  119 46% 11 923580 4018 76%
c - 15.15 746 31 1  34  305  155 42% 12 328632 4018 76%
c } 15.22 726 20 1 108 1002  193 37% 14 328632 4018 76%
c [ 15.22 726  0 1 108 1002  193  0% 0 328632 4018 76%
c O 15.22 726  2 1 108 1003  194 29% 2 328632 4018 76%
c 
c  seconds   reductions  redundant  irredundant
c          MB    restarts       trail      variables
c           level   conflicts       glue        remaining
c 
c i 15.22 726  2 1 108 1010  196 30% 2 328632 3973 75%
c i 15.54 727 14 1 108 1024  209 42% 9 328632 3972 75%
c i 15.58 727 16 1 108 1035  218 48% 11 328632 3971 75%
c i 15.59 727 17 1 108 1039  220 48% 12 328632 3970 75%
c i 15.64 727 22 1 108 1057  235 51% 17 328632 3969 75%
c i 15.69 727 24 1 108 1076  251 52% 18 328632 3968 75%
c i 15.69 727 23 1 108 1077  251 52% 17 328632 3967 75%
c i 15.73 727 24 1 108 1088  260 53% 18 328632 3966 75%
c - 16.61 818 27 2 108 1215  303 54% 22 328089 3966 75%
c i 16.75 818 28 2 108 1244  323 54% 22 328089 3965 75%
c i 16.76 818 28 2 108 1247  324 54% 22 328089 3964 75%
c i 16.80 818 27 2 108 1263  335 54% 22 328089 3963 74%
c i 16.80 818 27 2 108 1264  335 54% 22 328089 3962 74%
c i 16.85 818 27 2 108 1277  345 54% 22 328089 3961 74%
c i 16.99 818 27 2 108 1408  452 55% 22 328089 3960 74%
c i 17.07 818 26 2 108 1504  521 55% 21 328089 3959 74%
c i 17.13 818 24 2 108 1611  615 55% 20 328089 3958 74%
c i 17.16 818 24 2 108 1647  647 55% 20 328089 3957 74%
c i 17.19 818 24 2 108 1701  679 55% 20 328089 3956 74%
c i 17.48 818 22 2 109 2096  974 55% 18 328089 3955 74%
c 
c  seconds   reductions  redundant   irredundant
c          MB    restarts       trail       variables
c           level   conflicts       glue         remaining
c 
c i 17.50 818 22 2 109 2128  995 55% 18 328089 3954 74%
c i 17.58 818 21 2 109 2259 1066 55% 18 328089 3953 74%
c i 17.69 818 22 2 109 2380 1157 55% 18 328089 3952 74%
c i 17.74 818 21 2 109 2448 1204 55% 18 328089 3951 74%
c - 18.17 815 21 3 109 2580 1151 55% 17 328044 3951 74%
c i 18.51 815 21 3 109 2608 1174 41% 17 328044 3950 74%
c i 18.53 815 21 3 109 2618 1180 40% 17 328044 3949 74%
c i 18.54 815 21 3 109 2633 1190 40% 17 328044 3948 74%
c i 18.57 815 21 3 109 2663 1209 41% 17 328044 3947 74%
c i 18.58 815 21 3 109 2671 1215 40% 17 328044 3946 74%
c i 18.59 815 21 3 109 2688 1227 40% 17 328044 3945 74%
c i 18.63 815 21 3 109 2741 1249 40% 17 328044 3944 74%
c i 18.65 815 21 3 109 2773 1270 40% 17 328044 3943 74%
c i 18.79 815 21 3 109 2855 1324 40% 17 328044 3942 74%
c i 18.85 815 21 3 109 2870 1332 40% 17 328044 3941 74%
c i 18.85 815 21 3 109 2871 1332 40% 17 328044 3940 74%
c i 18.89 815 21 3 109 2898 1346 39% 17 328044 3939 74%
c i 18.95 815 21 3 109 2941 1368 39% 17 328044 3938 74%
c i 19.02 815 21 3 109 2988 1401 39% 17 328044 3937 74%
c i 19.02 815 21 3 109 2989 1401 39% 17 328044 3936 74%
c 
c  seconds   reductions  redundant   irredundant
c          MB    restarts       trail       variables
c           level   conflicts       glue         remaining
c 
c ] 19.02 815 21 3 109 3002 1409 39% 17 328044 3936 74%
c { 19.02 815 20 3 109 3002 1409 50% 14 328044 3936 74%
c F 19.04 815 20 3 109 3007 1410 50% 14 328044 3936 74%
c i 19.18 815 19 3 109 3012 1414 50% 14 328044 3935 74%
c i 19.18 815 19 3 109 3013 1414 50% 14 328044 3934 74%
c i 19.18 815 19 3 109 3014 1414 50% 14 328044 3933 74%
c i 19.20 815 19 3 109 3015 1414 50% 14 328044 3932 74%
c i 19.22 815 19 3 109 3017 1415 50% 14 328044 3931 74%
c i 19.29 815 19 3 109 3021 1418 50% 14 328044 3930 74%
c i 19.31 815 19 3 109 3022 1418 50% 14 328044 3929 74%
c i 19.31 815 19 3 109 3026 1421 50% 14 328044 3928 74%
c i 19.48 815 21 3 110 3049 1438 49% 14 328044 3927 74%
c i 19.51 815 22 3 111 3064 1445 49% 14 328044 3925 74%
c i 19.52 815 23 3 111 3070 1450 49% 14 328044 3924 74%
c i 19.67 815 25 3 115 3088 1463 48% 14 328044 3923 74%
c i 19.73 815 25 3 117 3095 1468 48% 15 328044 3922 74%
c i 20.10 815 25 3 128 3158 1517 47% 14 328044 3921 74%
c i 20.15 815 26 3 128 3169 1527 47% 14 328044 3920 74%
c i 20.15 815 25 3 128 3170 1527 47% 14 328044 3919 74%
c i 20.15 815 25 3 128 3171 1527 47% 14 328044 3918 74%
c 
c  seconds   reductions  redundant   irredundant
c          MB    restarts       trail       variables
c           level   conflicts       glue         remaining
c 
c i 20.24 815 26 3 128 3179 1534 47% 14 328044 3917 74%
c i 20.35 815 26 3 132 3205 1559 47% 14 328044 3916 74%
c i 20.37 815 26 3 135 3216 1566 46% 14 328044 3915 74%
c i 20.38 815 26 3 136 3231 1578 46% 14 328044 3914 74%
c i 20.65 815 26 3 147 3275 1617 46% 15 328044 3913 74%
c i 21.18 815 28 3 164 3338 1673 45% 15 328044 3912 74%
c i 21.22 815 28 3 167 3348 1682 45% 15 328044 3911 74%
c i 21.23 815 28 3 167 3349 1682 45% 15 328044 3910 73%
c i 21.27 815 29 3 169 3360 1688 45% 15 328044 3909 73%
c i 21.58 815 31 3 193 3453 1750 44% 16 328044 3908 73%
c i 22.01 815 33 3 204 3536 1808 43% 16 328044 3905 73%
c i 22.06 815 33 3 206 3542 1813 43% 16 328044 3904 73%
c i 22.07 815 33 3 206 3543 1813 43% 16 328044 3903 73%
c i 22.12 815 33 3 209 3554 1823 43% 16 328044 3902 73%
c i 22.40 815 34 3 222 3609 1865 42% 17 328044 3901 73%
c i 22.73 815 35 3 239 3675 1907 42% 17 328044 3900 73%
c i 22.88 815 36 3 251 3717 1945 41% 18 328044 3899 73%
c i 23.24 815 36 3 258 3776 1986 41% 17 328044 3898 73%
c i 23.26 815 36 3 258 3779 1988 41% 17 328044 3897 73%
c i 23.33 815 36 3 259 3808 2012 41% 17 328044 3896 73%
c 
c  seconds   reductions  redundant   irredundant
c          MB    restarts       trail       variables
c           level   conflicts       glue         remaining
c 
c i 23.33 815 36 3 260 3811 2014 41% 17 328044 3895 73%
c i 23.40 815 36 3 271 3865 2060 41% 18 328044 3894 73%
c i 23.40 815 36 3 271 3866 2060 41% 18 328044 3893 73%
c i 23.40 815 36 3 272 3867 2060 41% 18 328044 3892 73%
c i 23.56 815 37 3 286 3933 2115 40% 18 328044 3891 73%
c i 23.59 815 37 3 290 3948 2127 40% 18 328044 3890 73%
c i 23.60 815 37 3 292 3953 2131 40% 18 328044 3889 73%
c i 23.60 815 37 3 292 3954 2131 40% 18 328044 3888 73%
c i 23.60 815 37 3 294 3959 2135 40% 18 328044 3887 73%
c i 23.61 815 37 3 294 3960 2135 40% 18 328044 3886 73%
c i 23.61 815 37 3 295 3961 2135 40% 18 328044 3885 73%
c i 23.61 815 37 3 295 3962 2135 40% 18 328044 3884 73%
c i 23.61 815 37 3 295 3963 2135 40% 18 328044 3883 73%
c i 24.18 816 38 3 330 4147 2283 39% 19 328044 3882 73%
c i 24.38 816 39 3 340 4213 2341 39% 19 328044 3881 73%
c - 25.71 801 41 4 381 4399 1841 38% 19 327834 3881 73%
c i 26.36 801 40 4 396 4636 2028 38% 20 327834 3880 73%
c 3 27.13 802 38 4 396 5000 3766 38% 19 327801 3865 73%
c 2 27.21 802 38 4 396 5000 3976 38% 19 327745 3865 73%
c p 37.01 802 38 4 396 5000 8390 38% 19 327745 3765 71%
c 
c  seconds   reductions  redundant   irredundant
c          MB    restarts       trail       variables
c           level   conflicts       glue         remaining
c 
c d 37.50 802 38 4 396 5000 7963 38% 19 326950 3764 71%
c # 39.48 802 35 4 418 6008 8684 38% 19 326950 3764 71%
c - 40.56 795 32 5 425 6675 2615 38% 18 326950 3764 71%
c } 41.51 795 32 5 460 7002 2864 38% 18 326950 3764 71%
c [ 41.51 795 21 5 460 7002 2864 39% 17 326950 3764 71%
c - 43.35 796 24 6 462 9402 3272 39% 20 326950 3764 71%
c I 43.76 796 25 6 462 10010 3754 40% 21 326950 3764 71%
c - 49.72 796 22 7 464 12583 3592 39% 18 326950 3764 71%
c 2 52.47 796 23 7 465 15000 6259 38% 19 326935 3764 71%
c p 56.11 796 23 7 465 15000 10642 38% 19 326935 3763 71%
c ] 56.20 796 23 7 465 15003 10645 38% 19 326935 3763 71%
c { 56.20 796 32 7 465 15003 10645 38% 18 326935 3763 71%
c B 56.29 796 32 7 467 15011 10653 38% 18 326935 3763 71%
c s 58.05 796 34 7 532 15601 10746 37% 19 324753 3763 71%
c v 66.07 796 34 7 532 15601 10746 37% 19 324612 3763 71%
c w 66.15 796 34 7 532 15601 10744 37% 19 324612 3763 71%
c t 66.16 796 34 7 532 15601 10739 37% 19 324554 3763 71%
c e 67.17 797 34 7 532 15601 6053 37% 19 318703 781 15%
c s 67.30 797 34 7 532 15601 6053 37% 19 318285 781 15%
c - 69.11 797 33 8 537 16217 4047 71% 19 318285 781 15%
c 
c  seconds   reductions   redundant   irredundant
c          MB    restarts        trail       variables
c           level    conflicts       glue        remaining
c 
c - 74.84 797 28 9 685 20274 4723 71% 17 318285 781 15%
c W 75.93 797 27 9 687 21013 5169 71% 17 318285 781 15%
c } 81.57 797 28 9 910 22843 6527 70% 18 318285 781 15%
c 1 81.57 797 28 9 910 22843 6527 70% 18 318285 781 15%
c 
c --- [ writing output ] -----------------------------------------------------
c 
c writing simplified CNF to DIMACS file 'simp/12.cubes1172.adj.simp1'
c * 81.57 797 28 9 910 22843 6527 70% 18 318285 781 15%
c opening file to write 'simp/12.cubes1172.adj.simp1'
c writing 'p cnf 5320 318285' header
c closing file 'simp/12.cubes1172.adj.simp1'
c after writing 116870638 bytes 111.5 MB
c wrote 318285 clauses in 0.84 seconds process time
c 
c --- [ writing extension ] --------------------------------------------------
c 
c writing extension stack to 'simp/12.cubes1172.adj.ext1'
c opening file to write 'simp/12.cubes1172.adj.ext1'
c closing file 'simp/12.cubes1172.adj.ext1'
c after writing 187608 bytes 0.2 MB
c wrote 8216 witnesses in 0.00 seconds process time
c 
c --- [ result ] -------------------------------------------------------------
c 
s SATISFIABLE
c 
c --- [ run-time profiling ] -------------------------------------------------
c 
c process time taken by individual solving procedures
c (percentage relative to process time for solving)
c 
c        48.00   65.90% search
c        31.79   43.65% unstable
c        24.84   34.10% simplify
c        14.74   20.24% stable
c        13.45   18.47% probe
c         8.73   11.99% parse
c         8.07   11.08% vivify
c         1.84    2.52% elim
c         1.20    1.65% lucky
c         0.29    0.39% subsume
c         0.25    0.35% walk
c         0.12    0.16% ternary
c   =================================
c        72.84   88.38% solve
c 
c last line shows process time for solving
c (percentage relative to total process time)
c 
c --- [ statistics ] ---------------------------------------------------------
c 
c chronological:              4758        20.83 %  of conflicts
c conflicts:                 22843       313.63    per second
c decisions:                 71275       978.58    per second
c eliminated:                 2982        56.05 %  of all variables
c fixed:                      1541        28.97 %  of all variables
c learned:                   22326        97.74 %  per conflict
c learned_lits:            3332485       100.00 %  learned literals
c minimized:                     0         0.00 %  learned literals
c shrunken:                1868492        56.07 %  learned literals
c minishrunken:             304760         9.15 %  learned literals
c propagations:            4402244         0.06 M  per second
c reduced:                    7998        35.01 %  per conflict
c rephased:                      6      3807.17    interval
c restarts:                    910        25.10    interval
c stabilizing:                   2        43.78 %  of conflicts
c substituted:                  16         0.30 %  of all variables
c subsumed:                  10449         0.47 %  of all clauses
c strengthened:               9229         0.41 %  of all clauses
c ternary:                    2903         0.40 %  of resolved
c vivified:                    143         0.01 %  of all clauses
c walked:                        1     22843.00    interval
c weakened:                   6675         3.10    average size
c 
c seconds are measured in process time for solving
c 
c --- [ resources ] ----------------------------------------------------------
c 
c total process time since initialization:        82.41    seconds
c total real time since initialization:           82.46    seconds
c maximum resident set size of process:          946.07    MB
c 
c --- [ shutting down ] ------------------------------------------------------
c 
c exit 10
WARNING! DIMACS header mismatch: wrong number of variables.
============================[ Problem Statistics ]=============================
|                                                                             |
|  Number of variables:          2727                                         |
|  Number of clauses:          318285                                         |
|  Parse time:                   1.61 s                                       |
|  Simplification time:          0.03 s                                       |
|                                                                             |
============================[ Search Statistics ]====================================================
| Conflicts |          ORIGINAL         |          LEARNT          | Num Sols |      SUBGRAPHS      |
|           |    Vars  Clauses Literals |    Limit  Clauses Lit/Cl |          | Canonical Noncanon. |
=====================================================================================================
|       100 |    2647   318285 26610549 |     2000      100    155 |        0 |        12         0 |
|       383 |    2647   318418 26612715 |     2000      383     82 |        0 |        61       133 |
|       803 |    2647   318613 26616132 |     2000      803     47 |        0 |       267       328 |
|      1596 |    2647   319069 26623782 |     2000     1596     31 |        0 |       398       784 |
|      3107 |    2647   320074 26635893 |     3600     2107     12 |        0 |       636      1789 |
|      4810 |    2647   321018 26649657 |     5003     2013     10 |        0 |       885      2733 |
|      8892 |    2647   323961 26689446 |     6303     3595     11 |        0 |      1598      5676 |
|     16685 |    2647   330046 26773304 |     8785     4470     10 |        0 |      2448     11761 |
|     26334 |    2647   337133 26863590 |    10000     9734     13 |        0 |      3084     18848 |
|     35151 |    2647   342106 26926250 |    12406     7957     13 |        0 |      3664     23821 |
|     45280 |    2647   346469 26975670 |    13608    11888     31 |        0 |      4011     28184 |
=====================================================================================================
Number of solutions   : 0
Canonical subgraphs   : 4706           (196 /sec)
          order  3    : 1              (142857 /sec)
          order  4    : 1              (500000 /sec)
          order  5    : 1              (200000 /sec)
          order  6    : 1              (52632 /sec)
          order  7    : 2              (10309 /sec)
          order  8    : 6              (2610 /sec)
          order  9    : 26             (854 /sec)
          order 10    : 110            (417 /sec)
          order 11    : 488            (335 /sec)
          order 12    : 3479           (198 /sec)
          order 13    : 566            (131 /sec)
          order 14    : 25             (64 /sec)
          order 15    : 0              (-nan /sec)
          order 16    : 0              (-nan /sec)
          order 17    : 0              (-nan /sec)
          order 18    : 0              (-nan /sec)
          order 19    : 0              (-nan /sec)
          order 20    : 0              (-nan /sec)
          order 21    : 0              (-nan /sec)
Noncanonical subgraphs: 35713          (1056 /sec)
          order  3    : 0              (-nan /sec)
          order  4    : 0              (-nan /sec)
          order  5    : 0              (-nan /sec)
          order  6    : 0              (-nan /sec)
          order  7    : 0              (-nan /sec)
          order  8    : 0              (-nan /sec)
          order  9    : 0              (-nan /sec)
          order 10    : 0              (-nan /sec)
          order 11    : 0              (-nan /sec)
          order 12    : 0              (-nan /sec)
          order 13    : 32619          (1080 /sec)
          order 14    : 3041           (857 /sec)
          order 15    : 53             (767 /sec)
          order 16    : 0              (-nan /sec)
          order 17    : 0              (-nan /sec)
          order 18    : 0              (-nan /sec)
          order 19    : 0              (-nan /sec)
          order 20    : 0              (-nan /sec)
Canonicity checking   : 24.036 s
Noncanonicity checking: 33.8086 s
Total canonicity time : 57.8446 s
database reductions   : 11
restarts              : 174
conflicts             : 56078          (552 /sec)
decisions             : 112745         (0.00 % random) (1110 /sec)
propagations          : 2707983        (26649 /sec)
conflict literals     : 1374519        (54.79 % deleted)
actual reward         : 0.118055
Memory used           : 156.00 MB
CPU time              : 101.616 s

UNSATISFIABLE
